networks/zoo_136_4556/zoo_136_4556.txt
OKAY
Number of groups: 68
Flow 27: {4 28 0} {28 96 1} 
Flow 31: {68 32 0} {32 100 1} 
Flow 69: {2 7 0} {7 3 1} {3 71 2} 
Flow 122: {11 12 0} {12 56 1} {56 124 2} 
Flow 132: {57 66 0} {66 134 1} 
Flow 186: {3 7 0} {7 19 1} {19 53 2} {53 121 3} 
Flow 278: {6 7 0} {7 11 1} {11 79 2} 
Flow 302: {5 8 0} {8 2 1} {2 35 2} {35 103 3} 
Flow 475: {8 5 0} {5 6 1} {6 74 2} 
Flow 594: {9 4 0} {4 3 1} {3 59 2} {59 127 3} 
Flow 612: {10 30 0} {30 9 1} {9 77 2} 
Flow 772: {12 11 0} {11 7 1} {7 36 2} {36 104 3} 
Flow 805: {13 62 0} {62 63 1} {63 1 2} {1 69 3} 
Flow 927: {62 61 0} {61 57 1} {57 125 2} 
Flow 932: {14 62 0} {62 130 1} 
Flow 963: {15 63 0} {63 26 1} {26 94 2} 
Flow 1071: {16 63 0} {63 61 1} {61 67 2} {67 135 3} 
Flow 1116: {63 62 0} {62 45 1} {45 113 2} 
Flow 1155: {17 26 0} {26 63 1} {63 16 2} {16 84 3} 
Flow 1179: {42 41 0} {41 109 1} 
Flow 1180: {40 39 0} {39 42 1} {42 110 2} 
Flow 1226: {19 52 0} {52 21 1} {21 89 2} 
Flow 1297: {20 52 0} {52 53 1} {53 25 2} {25 93 3} 
Flow 1359: {21 52 0} {52 19 1} {19 87 2} 
Flow 1454: {22 52 0} {52 48 1} {48 116 2} 
Flow 1481: {23 53 0} {53 19 1} {19 7 2} {7 75 3} 
Flow 1482: {34 2 0} {2 8 1} {8 76 2} 
Flow 1569: {24 53 0} {53 29 1} {29 97 2} 
Flow 1583: {7 59 0} {59 61 1} {61 62 2} {62 43 3} {43 111 4} 
Flow 1641: {25 53 2} {53 34 3} {34 102 4} 
Flow 1771: {27 9 0} {9 30 1} {30 98 2} 
Flow 1813: {28 4 0} {4 72 1} 
Flow 1908: {29 53 0} {53 52 1} {52 33 2} {33 101 3} 
Flow 2007: {30 4 0} {4 65 1} {65 133 2} 
Flow 2025: {31 68 0} {68 63 1} {63 15 2} {15 83 3} 
Flow 2108: {32 68 0} {68 31 1} {31 99 2} 
Flow 2156: {33 52 0} {52 12 1} {12 80 2} 
Flow 2302: {35 2 0} {2 34 1} {34 53 2} {53 24 3} {24 92 4} 
Flow 2381: {36 7 0} {7 51 1} {51 37 2} {37 105 3} 
Flow 2460: {37 51 0} {51 49 1} {49 117 2} 
Flow 2528: {38 51 0} {51 50 1} {50 118 2} 
Flow 2563: {39 40 0} {40 18 1} {18 17 2} {17 85 3} 
Flow 2790: {41 62 0} {62 44 1} {44 112 2} 
Flow 2827: {43 62 0} {62 13 1} {13 81 2} 
Flow 2926: {44 62 2} {62 46 3} {46 114 4} 
Flow 2987: {45 62 0} {62 41 1} {41 42 2} {42 39 3} {39 107 4} 
Flow 3029: {46 62 0} {62 14 1} {14 82 2} 
Flow 3104: {47 52 0} {52 22 1} {22 90 2} 
Flow 3202: {48 52 0} {52 54 1} {54 122 2} 
Flow 3218: {51 7 0} {7 2 1} {2 70 2} 
Flow 3254: {49 51 2} {51 38 3} {38 106 4} 
Flow 3345: {50 51 0} {51 12 1} {12 1 2} {1 63 3} {63 131 4} 
Flow 3435: {26 17 0} {17 18 1} {18 86 2} 
Flow 3457: {18 40 0} {40 108 1} 
Flow 3556: {52 7 0} {7 6 1} {6 5 2} {5 73 3} 
Flow 3603: {54 52 0} {52 120 1} 
Flow 3665: {55 52 0} {52 47 1} {47 115 2} 
Flow 3705: {56 12 0} {12 52 1} {52 20 2} {20 88 3} 
Flow 3842: {58 53 2} {53 23 3} {23 91 4} 
Flow 4013: {60 61 0} {61 129 1} 
Flow 4142: {61 59 0} {59 7 1} {7 52 2} {52 55 3} {55 123 4} 
Flow 4145: {53 58 0} {58 126 1} 
Flow 4181: {1 4 0} {4 9 1} {9 27 2} {27 95 3} 
Flow 4231: {59 3 0} {3 4 1} {4 30 2} {30 10 3} {10 78 4} 
Flow 4288: {64 61 0} {61 63 1} {63 68 2} {68 136 3} 
Flow 4339: {65 4 0} {4 1 1} {1 12 2} {12 51 3} {51 119 4} 
Flow 4419: {66 57 0} {57 61 1} {61 64 2} {64 132 3} 
Flow 4482: {67 61 2} {61 60 3} {60 128 4} 
Time taken running everything: 1 seconds
