networks/zoo_136_4556/zoo_136_4556.sol
<?xml version = "1.0" encoding="UTF-8" standalone="yes"?>
<CPLEXSolution version="1.2">
 <header
   problemName="networks/zoo_136_4556/zoo_136_4556.lp"
   solutionName="incumbent"
   solutionIndex="-1"
   objectiveValue="68"
   solutionTypeValue="3"
   solutionTypeString="primal"
   solutionStatusValue="101"
   solutionStatusString="integer optimal solution"
   solutionMethodString="mip"
   primalFeasible="1"
   dualFeasible="1"
   MIPNodes="2470"
   MIPIterations="441676"
   writeLevel="3"/>
 <quality
   epInt="1.0000000000000001e-05"
   epRHS="9.9999999999999995e-07"
   maxIntInfeas="0"
   maxPrimalInfeas="1.000000082740371e-09"
   maxX="4"
   maxSlack="10"/>
 <variables>
  <variable name="Y(27,28)" index="3563" value="1"/>
  <variable name="Y(31,32)" index="4111" value="1"/>
  <variable name="Y(69,3)" index="9250" value="1"/>
  <variable name="Y(122,56)" index="16511" value="1"/>
  <variable name="Y(132,66)" index="17881" value="1"/>
  <variable name="Y(186,53)" index="25212" value="1"/>
  <variable name="Y(278,11)" index="37682" value="1"/>
  <variable name="Y(302,35)" index="40970" value="1"/>
  <variable name="Y(475,6)" index="64469" value="1"/>
  <variable name="Y(594,59)" index="80706" value="1"/>
  <variable name="Y(612,9)" index="83104" value="1"/>
  <variable name="Y(772,36)" index="104891" value="1"/>
  <variable name="Y(805,1)" index="109344" value="1"/>
  <variable name="Y(927,57)" index="125992" value="1"/>
  <variable name="Y(932,62)" index="126677" value="1"/>
  <variable name="Y(963,26)" index="130857" value="1"/>
  <variable name="Y(1071,67)" index="145586" value="1"/>
  <variable name="Y(1116,45)" index="151684" value="1"/>
  <variable name="Y(1155,16)" index="156959" value="1"/>
  <variable name="Y(1179,41)" index="160248" value="1"/>
  <variable name="Y(1180,42)" index="160385" value="1"/>
  <variable name="Y(1226,21)" index="166620" value="1"/>
  <variable name="Y(1297,25)" index="176280" value="1"/>
  <variable name="Y(1359,19)" index="184706" value="1"/>
  <variable name="Y(1454,48)" index="197655" value="1"/>
  <variable name="Y(1481,7)" index="201286" value="1"/>
  <variable name="Y(1482,8)" index="201423" value="1"/>
  <variable name="Y(1569,29)" index="213276" value="1"/>
  <variable name="Y(1583,43)" index="215194" value="1"/>
  <variable name="Y(1641,34)" index="223073" value="1"/>
  <variable name="Y(1771,30)" index="240749" value="1"/>
  <variable name="Y(1813,4)" index="246435" value="1"/>
  <variable name="Y(1908,33)" index="259384" value="1"/>
  <variable name="Y(2007,65)" index="272880" value="1"/>
  <variable name="Y(2025,15)" index="275278" value="1"/>
  <variable name="Y(2108,31)" index="286582" value="1"/>
  <variable name="Y(2156,12)" index="293091" value="1"/>
  <variable name="Y(2302,24)" index="312959" value="1"/>
  <variable name="Y(2381,37)" index="323716" value="1"/>
  <variable name="Y(2460,49)" index="334472" value="1"/>
  <variable name="Y(2528,50)" index="343721" value="1"/>
  <variable name="Y(2563,17)" index="348448" value="1"/>
  <variable name="Y(2790,44)" index="379347" value="1"/>
  <variable name="Y(2827,13)" index="384348" value="1"/>
  <variable name="Y(2926,46)" index="397845" value="1"/>
  <variable name="Y(2987,39)" index="406134" value="1"/>
  <variable name="Y(3029,14)" index="411821" value="1"/>
  <variable name="Y(3104,22)" index="422029" value="1"/>
  <variable name="Y(3202,54)" index="435389" value="1"/>
  <variable name="Y(3218,2)" index="437513" value="1"/>
  <variable name="Y(3254,38)" index="442445" value="1"/>
  <variable name="Y(3345,63)" index="454846" value="1"/>
  <variable name="Y(3435,18)" index="467041" value="1"/>
  <variable name="Y(3457,40)" index="470055" value="1"/>
  <variable name="Y(3556,5)" index="483484" value="1"/>
  <variable name="Y(3603,52)" index="489923" value="1"/>
  <variable name="Y(3665,47)" index="498350" value="1"/>
  <variable name="Y(3705,20)" index="503763" value="1"/>
  <variable name="Y(3842,23)" index="522398" value="1"/>
  <variable name="Y(4013,61)" index="545692" value="1"/>
  <variable name="Y(4142,55)" index="563230" value="1"/>
  <variable name="Y(4145,58)" index="563641" value="1"/>
  <variable name="Y(4181,27)" index="568506" value="1"/>
  <variable name="Y(4231,10)" index="575289" value="1"/>
  <variable name="Y(4288,68)" index="583099" value="1"/>
  <variable name="Y(4339,51)" index="590018" value="1"/>
  <variable name="Y(4419,64)" index="600911" value="1"/>
  <variable name="Y(4482,60)" index="609475" value="1"/>
  <variable name="X(1,4,4181)" index="623796" value="1"/>
  <variable name="X(1,12,4339)" index="628510" value="1"/>
  <variable name="X(1,63,3345)" index="632072" value="1"/>
  <variable name="X(1,69,805)" index="634088" value="1"/>
  <variable name="X(2,7,69)" index="637908" value="1"/>
  <variable name="X(2,8,1482)" index="643877" value="1"/>
  <variable name="X(2,34,2302)" index="649253" value="1"/>
  <variable name="X(2,35,302)" index="651809" value="1"/>
  <variable name="X(2,70,3218)" index="659281" value="1"/>
  <variable name="X(3,4,4231)" index="664850" value="1"/>
  <variable name="X(3,7,186)" index="665361" value="1"/>
  <variable name="X(3,59,594)" index="670325" value="1"/>
  <variable name="X(3,71,69)" index="674356" value="1"/>
  <variable name="X(4,1,4339)" index="683182" value="1"/>
  <variable name="X(4,3,594)" index="683993" value="1"/>
  <variable name="X(4,9,4181)" index="692136" value="1"/>
  <variable name="X(4,28,27)" index="692538" value="1"/>
  <variable name="X(4,30,4231)" index="701298" value="1"/>
  <variable name="X(4,65,2007)" index="703630" value="1"/>
  <variable name="X(4,72,1813)" index="707992" value="1"/>
  <variable name="X(5,6,475)" index="711210" value="1"/>
  <variable name="X(5,8,302)" index="715593" value="1"/>
  <variable name="X(5,73,3556)" index="723403" value="1"/>
  <variable name="X(6,5,3556)" index="727959" value="1"/>
  <variable name="X(6,7,278)" index="729237" value="1"/>
  <variable name="X(6,74,475)" index="733990" value="1"/>
  <variable name="X(7,2,3218)" index="741289" value="1"/>
  <variable name="X(7,3,69)" index="742696" value="1"/>
  <variable name="X(7,6,3556)" index="750739" value="1"/>
  <variable name="X(7,11,278)" index="752017" value="1"/>
  <variable name="X(7,19,186)" index="756481" value="1"/>
  <variable name="X(7,36,772)" index="761623" value="1"/>
  <variable name="X(7,51,2381)" index="767788" value="1"/>
  <variable name="X(7,52,4142)" index="774105" value="1"/>
  <variable name="X(7,59,1583)" index="776102" value="1"/>
  <variable name="X(7,75,1481)" index="780556" value="1"/>
  <variable name="X(8,2,302)" index="783933" value="1"/>
  <variable name="X(8,5,475)" index="788662" value="1"/>
  <variable name="X(8,76,1482)" index="794225" value="1"/>
  <variable name="X(9,4,594)" index="797893" value="1"/>
  <variable name="X(9,27,4181)" index="806036" value="1"/>
  <variable name="X(9,30,1771)" index="808182" value="1"/>
  <variable name="X(9,77,612)" index="811579" value="1"/>
  <variable name="X(10,30,612)" index="816135" value="1"/>
  <variable name="X(10,78,4231)" index="824310" value="1"/>
  <variable name="X(11,7,772)" index="825407" value="1"/>
  <variable name="X(11,12,122)" index="829313" value="1"/>
  <variable name="X(11,79,278)" index="834025" value="1"/>
  <variable name="X(12,1,3345)" index="841648" value="1"/>
  <variable name="X(12,11,772)" index="843631" value="1"/>
  <variable name="X(12,51,4339)" index="851754" value="1"/>
  <variable name="X(12,52,3705)" index="855676" value="1"/>
  <variable name="X(12,56,122)" index="856649" value="1"/>
  <variable name="X(12,80,2156)" index="863239" value="1"/>
  <variable name="X(13,62,805)" index="866444" value="1"/>
  <variable name="X(13,81,2827)" index="873022" value="1"/>
  <variable name="X(14,62,932)" index="875683" value="1"/>
  <variable name="X(14,82,3029)" index="882336" value="1"/>
  <variable name="X(15,63,963)" index="884826" value="1"/>
  <variable name="X(15,83,2025)" index="890444" value="1"/>
  <variable name="X(16,63,1071)" index="894046" value="1"/>
  <variable name="X(16,84,1155)" index="898686" value="1"/>
  <variable name="X(17,18,3435)" index="905522" value="1"/>
  <variable name="X(17,26,1155)" index="907798" value="1"/>
  <variable name="X(17,85,2563)" index="913762" value="1"/>
  <variable name="X(18,17,2563)" index="918318" value="1"/>
  <variable name="X(18,40,3457)" index="923768" value="1"/>
  <variable name="X(18,86,3435)" index="928302" value="1"/>
  <variable name="X(19,7,1481)" index="930904" value="1"/>
  <variable name="X(19,52,1226)" index="935205" value="1"/>
  <variable name="X(19,53,186)" index="938721" value="1"/>
  <variable name="X(19,87,1359)" index="944450" value="1"/>
  <variable name="X(20,52,1297)" index="948944" value="1"/>
  <variable name="X(20,88,3705)" index="955908" value="1"/>
  <variable name="X(21,52,1359)" index="958118" value="1"/>
  <variable name="X(21,89,1226)" index="962541" value="1"/>
  <variable name="X(22,52,1454)" index="967325" value="1"/>
  <variable name="X(22,90,3104)" index="973531" value="1"/>
  <variable name="X(23,53,1481)" index="976464" value="1"/>
  <variable name="X(23,91,3842)" index="983381" value="1"/>
  <variable name="X(24,53,1569)" index="985664" value="1"/>
  <variable name="X(24,92,2302)" index="990953" value="1"/>
  <variable name="X(25,53,1641)" index="994848" value="1"/>
  <variable name="X(25,93,1297)" index="999060" value="1"/>
  <variable name="X(26,17,3435)" index="1005754" value="1"/>
  <variable name="X(26,63,1155)" index="1008030" value="1"/>
  <variable name="X(26,94,963)" index="1012394" value="1"/>
  <variable name="X(27,9,1771)" index="1017758" value="1"/>
  <variable name="X(27,95,4181)" index="1024724" value="1"/>
  <variable name="X(28,4,1813)" index="1026912" value="1"/>
  <variable name="X(28,96,27)" index="1029682" value="1"/>
  <variable name="X(29,53,1908)" index="1036119" value="1"/>
  <variable name="X(29,97,1569)" index="1040336" value="1"/>
  <variable name="X(30,4,2007)" index="1045330" value="1"/>
  <variable name="X(30,9,612)" index="1048491" value="1"/>
  <variable name="X(30,10,4231)" index="1056666" value="1"/>
  <variable name="X(30,98,1771)" index="1058762" value="1"/>
  <variable name="X(31,68,2025)" index="1063572" value="1"/>
  <variable name="X(31,99,2108)" index="1068211" value="1"/>
  <variable name="X(32,68,2108)" index="1072767" value="1"/>
  <variable name="X(32,100,31)" index="1075246" value="1"/>
  <variable name="X(33,52,2156)" index="1081927" value="1"/>
  <variable name="X(33,101,1908)" index="1086235" value="1"/>
  <variable name="X(34,2,1482)" index="1090365" value="1"/>
  <variable name="X(34,53,2302)" index="1095741" value="1"/>
  <variable name="X(34,102,1641)" index="1099636" value="1"/>
  <variable name="X(35,2,2302)" index="1104853" value="1"/>
  <variable name="X(35,103,302)" index="1107409" value="1"/>
  <variable name="X(36,7,2381)" index="1114044" value="1"/>
  <variable name="X(36,104,772)" index="1116991" value="1"/>
  <variable name="X(37,51,2460)" index="1123235" value="1"/>
  <variable name="X(37,105,2381)" index="1127712" value="1"/>
  <variable name="X(38,51,2528)" index="1132415" value="1"/>
  <variable name="X(38,106,3254)" index="1137697" value="1"/>
  <variable name="X(39,40,2563)" index="1141562" value="1"/>
  <variable name="X(39,42,1180)" index="1144735" value="1"/>
  <variable name="X(39,107,2987)" index="1151098" value="1"/>
  <variable name="X(40,18,2563)" index="1155230" value="1"/>
  <variable name="X(40,39,1180)" index="1158403" value="1"/>
  <variable name="X(40,108,3457)" index="1165236" value="1"/>
  <variable name="X(41,42,2987)" index="1169322" value="1"/>
  <variable name="X(41,62,2790)" index="1173681" value="1"/>
  <variable name="X(41,109,1179)" index="1176626" value="1"/>
  <variable name="X(42,39,2987)" index="1182990" value="1"/>
  <variable name="X(42,41,1179)" index="1185738" value="1"/>
  <variable name="X(42,110,1180)" index="1190295" value="1"/>
  <variable name="X(43,62,2827)" index="1196498" value="1"/>
  <variable name="X(43,111,1583)" index="1199810" value="1"/>
  <variable name="X(44,62,2926)" index="1205709" value="1"/>
  <variable name="X(44,112,2790)" index="1210129" value="1"/>
  <variable name="X(45,62,2987)" index="1214882" value="1"/>
  <variable name="X(45,113,1116)" index="1217567" value="1"/>
  <variable name="X(46,62,3029)" index="1224036" value="1"/>
  <variable name="X(46,114,2926)" index="1228489" value="1"/>
  <variable name="X(47,52,3104)" index="1233223" value="1"/>
  <variable name="X(47,115,3665)" index="1238340" value="1"/>
  <variable name="X(48,52,3202)" index="1242433" value="1"/>
  <variable name="X(48,116,1454)" index="1245241" value="1"/>
  <variable name="X(49,51,3254)" index="1251597" value="1"/>
  <variable name="X(49,117,2460)" index="1255359" value="1"/>
  <variable name="X(50,51,3345)" index="1260800" value="1"/>
  <variable name="X(50,118,2528)" index="1264539" value="1"/>
  <variable name="X(51,7,3218)" index="1269785" value="1"/>
  <variable name="X(51,12,3345)" index="1274468" value="1"/>
  <variable name="X(51,37,2381)" index="1278060" value="1"/>
  <variable name="X(51,38,3254)" index="1283489" value="1"/>
  <variable name="X(51,49,2460)" index="1287251" value="1"/>
  <variable name="X(51,50,2528)" index="1291875" value="1"/>
  <variable name="X(51,119,4339)" index="1298242" value="1"/>
  <variable name="X(52,7,3556)" index="1302015" value="1"/>
  <variable name="X(52,12,2156)" index="1305171" value="1"/>
  <variable name="X(52,19,1359)" index="1308930" value="1"/>
  <variable name="X(52,20,3705)" index="1315832" value="1"/>
  <variable name="X(52,21,1226)" index="1317909" value="1"/>
  <variable name="X(52,22,3104)" index="1324343" value="1"/>
  <variable name="X(52,33,1908)" index="1327703" value="1"/>
  <variable name="X(52,47,3665)" index="1334016" value="1"/>
  <variable name="X(52,48,1454)" index="1336361" value="1"/>
  <variable name="X(52,53,1297)" index="1340760" value="1"/>
  <variable name="X(52,54,3202)" index="1347221" value="1"/>
  <variable name="X(52,55,4142)" index="1352717" value="1"/>
  <variable name="X(52,120,3603)" index="1356734" value="1"/>
  <variable name="X(53,19,1481)" index="1359168" value="1"/>
  <variable name="X(53,23,3842)" index="1366085" value="1"/>
  <variable name="X(53,24,2302)" index="1369101" value="1"/>
  <variable name="X(53,25,1297)" index="1372652" value="1"/>
  <variable name="X(53,29,1569)" index="1377480" value="1"/>
  <variable name="X(53,34,1641)" index="1382108" value="1"/>
  <variable name="X(53,52,1908)" index="1386931" value="1"/>
  <variable name="X(53,58,4145)" index="1393724" value="1"/>
  <variable name="X(53,121,186)" index="1394321" value="1"/>
  <variable name="X(54,52,3603)" index="1402294" value="1"/>
  <variable name="X(54,122,3202)" index="1406449" value="1"/>
  <variable name="X(55,52,3665)" index="1411468" value="1"/>
  <variable name="X(55,123,4142)" index="1416501" value="1"/>
  <variable name="X(56,12,3705)" index="1420620" value="1"/>
  <variable name="X(56,124,122)" index="1421593" value="1"/>
  <variable name="X(57,61,4419)" index="1430446" value="1"/>
  <variable name="X(57,66,132)" index="1430715" value="1"/>
  <variable name="X(57,125,927)" index="1436066" value="1"/>
  <variable name="X(58,53,3842)" index="1443537" value="1"/>
  <variable name="X(58,126,4145)" index="1448396" value="1"/>
  <variable name="X(59,3,4231)" index="1453038" value="1"/>
  <variable name="X(59,7,4142)" index="1457505" value="1"/>
  <variable name="X(59,61,1583)" index="1459502" value="1"/>
  <variable name="X(59,127,594)" index="1463069" value="1"/>
  <variable name="X(60,61,4013)" index="1471044" value="1"/>
  <variable name="X(60,128,4482)" index="1476069" value="1"/>
  <variable name="X(61,57,927)" index="1477070" value="1"/>
  <variable name="X(61,59,4142)" index="1484841" value="1"/>
  <variable name="X(61,60,4482)" index="1489737" value="1"/>
  <variable name="X(61,62,1583)" index="1491394" value="1"/>
  <variable name="X(61,63,4288)" index="1498655" value="1"/>
  <variable name="X(61,64,4419)" index="1503342" value="1"/>
  <variable name="X(61,67,1071)" index="1504550" value="1"/>
  <variable name="X(61,129,4013)" index="1512048" value="1"/>
  <variable name="X(62,13,2827)" index="1515418" value="1"/>
  <variable name="X(62,14,3029)" index="1520176" value="1"/>
  <variable name="X(62,41,2987)" index="1524690" value="1"/>
  <variable name="X(62,43,1583)" index="1527842" value="1"/>
  <variable name="X(62,44,2790)" index="1533605" value="1"/>
  <variable name="X(62,45,1116)" index="1536487" value="1"/>
  <variable name="X(62,46,2926)" index="1542853" value="1"/>
  <variable name="X(62,61,927)" index="1545410" value="1"/>
  <variable name="X(62,63,805)" index="1549844" value="1"/>
  <variable name="X(62,130,932)" index="1554527" value="1"/>
  <variable name="X(63,1,805)" index="1558956" value="1"/>
  <variable name="X(63,15,2025)" index="1564732" value="1"/>
  <variable name="X(63,16,1155)" index="1568418" value="1"/>
  <variable name="X(63,26,963)" index="1572782" value="1"/>
  <variable name="X(63,61,1071)" index="1577446" value="1"/>
  <variable name="X(63,62,1116)" index="1582047" value="1"/>
  <variable name="X(63,68,4288)" index="1589775" value="1"/>
  <variable name="X(63,131,3345)" index="1593388" value="1"/>
  <variable name="X(64,61,4288)" index="1598887" value="1"/>
  <variable name="X(64,132,4419)" index="1603574" value="1"/>
  <variable name="X(65,4,4339)" index="1608050" value="1"/>
  <variable name="X(65,133,2007)" index="1610274" value="1"/>
  <variable name="X(66,57,4419)" index="1617242" value="1"/>
  <variable name="X(66,134,132)" index="1617511" value="1"/>
  <variable name="X(67,61,4482)" index="1626417" value="1"/>
  <variable name="X(67,135,1071)" index="1627562" value="1"/>
  <variable name="X(68,31,2108)" index="1633155" value="1"/>
  <variable name="X(68,32,31)" index="1635634" value="1"/>
  <variable name="X(68,63,2025)" index="1642184" value="1"/>
  <variable name="X(68,136,4288)" index="1649003" value="1"/>
  <variable name="C(27,28)" index="1649378" value="1"/>
  <variable name="C(31,32)" index="1649394" value="1"/>
  <variable name="C(69,7)" index="1649547" value="1"/>
  <variable name="C(69,3)" index="1649548" value="2"/>
  <variable name="C(122,12)" index="1649796" value="1"/>
  <variable name="C(122,56)" index="1649797" value="2"/>
  <variable name="C(132,66)" index="1649844" value="1"/>
  <variable name="C(186,7)" index="1650078" value="1"/>
  <variable name="C(186,19)" index="1650079" value="2"/>
  <variable name="C(186,53)" index="1650080" value="3"/>
  <variable name="C(278,7)" index="1650484" value="1"/>
  <variable name="C(278,11)" index="1650485" value="2"/>
  <variable name="C(302,8)" index="1650631" value="1"/>
  <variable name="C(302,2)" index="1650632" value="2"/>
  <variable name="C(302,35)" index="1650633" value="3"/>
  <variable name="C(475,5)" index="1651437" value="1"/>
  <variable name="C(475,6)" index="1651438" value="2"/>
  <variable name="C(594,4)" index="1652110" value="1"/>
  <variable name="C(594,3)" index="1652111" value="2"/>
  <variable name="C(594,59)" index="1652112" value="3"/>
  <variable name="C(612,30)" index="1652203" value="1"/>
  <variable name="C(612,9)" index="1652204" value="2"/>
  <variable name="C(772,11)" index="1653041" value="1"/>
  <variable name="C(772,7)" index="1653042" value="2"/>
  <variable name="C(772,36)" index="1653043" value="3"/>
  <variable name="C(805,62)" index="1653176" value="1"/>
  <variable name="C(805,63)" index="1653177" value="2"/>
  <variable name="C(805,1)" index="1653178" value="3"/>
  <variable name="C(927,61)" index="1653870" value="1"/>
  <variable name="C(927,57)" index="1653871" value="2"/>
  <variable name="C(932,62)" index="1653892" value="1"/>
  <variable name="C(963,63)" index="1654048" value="1"/>
  <variable name="C(963,26)" index="1654049" value="2"/>
  <variable name="C(1071,63)" index="1654597" value="1"/>
  <variable name="C(1071,61)" index="1654598" value="2"/>
  <variable name="C(1071,67)" index="1654599" value="3"/>
  <variable name="C(1116,62)" index="1654863" value="1.0000000010000001"/>
  <variable name="C(1116,45)" index="1654864" value="2.0000000010000001"/>
  <variable name="C(1155,26)" index="1655103" value="1"/>
  <variable name="C(1155,63)" index="1655104" value="2"/>
  <variable name="C(1155,16)" index="1655105" value="3"/>
  <variable name="C(1179,41)" index="1655272" value="1"/>
  <variable name="C(1180,39)" index="1655275" value="1"/>
  <variable name="C(1180,42)" index="1655276" value="2"/>
  <variable name="C(1226,52)" index="1655537" value="1"/>
  <variable name="C(1226,21)" index="1655538" value="2"/>
  <variable name="C(1297,52)" index="1655866" value="1"/>
  <variable name="C(1297,53)" index="1655867" value="2"/>
  <variable name="C(1297,25)" index="1655868" value="3"/>
  <variable name="C(1359,52)" index="1656197" value="1"/>
  <variable name="C(1359,19)" index="1656198" value="2"/>
  <variable name="C(1454,52)" index="1656699" value="1"/>
  <variable name="C(1454,48)" index="1656700" value="2"/>
  <variable name="C(1481,53)" index="1656829" value="1"/>
  <variable name="C(1481,19)" index="1656830" value="2"/>
  <variable name="C(1481,7)" index="1656831" value="3"/>
  <variable name="C(1482,2)" index="1656835" value="1"/>
  <variable name="C(1482,8)" index="1656836" value="2"/>
  <variable name="C(1569,53)" index="1657350" value="1"/>
  <variable name="C(1569,29)" index="1657351" value="2"/>
  <variable name="C(1583,59)" index="1657445" value="1"/>
  <variable name="C(1583,61)" index="1657446" value="2"/>
  <variable name="C(1583,62)" index="1657447" value="3"/>
  <variable name="C(1583,43)" index="1657448" value="4"/>
  <variable name="C(1641,25)" index="1657777" value="2"/>
  <variable name="C(1641,53)" index="1657778" value="3"/>
  <variable name="C(1641,34)" index="1657779" value="4"/>
  <variable name="C(1771,9)" index="1658496" value="1"/>
  <variable name="C(1771,30)" index="1658497" value="2"/>
  <variable name="C(1813,4)" index="1658769" value="1"/>
  <variable name="C(1908,53)" index="1659307" value="1"/>
  <variable name="C(1908,52)" index="1659308" value="2"/>
  <variable name="C(1908,33)" index="1659309" value="3"/>
  <variable name="C(2007,4)" index="1659869" value="1"/>
  <variable name="C(2007,65)" index="1659870" value="2"/>
  <variable name="C(2025,68)" index="1659975" value="1"/>
  <variable name="C(2025,63)" index="1659976" value="2"/>
  <variable name="C(2025,15)" index="1659977" value="3"/>
  <variable name="C(2108,68)" index="1660481" value="1"/>
  <variable name="C(2108,31)" index="1660482" value="2"/>
  <variable name="C(2156,52)" index="1660749" value="1"/>
  <variable name="C(2156,12)" index="1660750" value="2"/>
  <variable name="C(2302,2)" index="1661524" value="1"/>
  <variable name="C(2302,34)" index="1661525" value="2"/>
  <variable name="C(2302,53)" index="1661526" value="3"/>
  <variable name="C(2302,24)" index="1661527" value="4"/>
  <variable name="C(2381,7)" index="1661951" value="1"/>
  <variable name="C(2381,51)" index="1661952" value="2"/>
  <variable name="C(2381,37)" index="1661953" value="3"/>
  <variable name="C(2460,51)" index="1662381" value="1"/>
  <variable name="C(2460,49)" index="1662382" value="2"/>
  <variable name="C(2528,51)" index="1662754" value="1"/>
  <variable name="C(2528,50)" index="1662755" value="2"/>
  <variable name="C(2563,40)" index="1662966" value="1"/>
  <variable name="C(2563,18)" index="1662967" value="2"/>
  <variable name="C(2563,17)" index="1662968" value="3"/>
  <variable name="C(2790,62)" index="1664478" value="1"/>
  <variable name="C(2790,44)" index="1664479" value="2"/>
  <variable name="C(2827,62)" index="1664698" value="1"/>
  <variable name="C(2827,13)" index="1664699" value="2"/>
  <variable name="C(2926,44)" index="1665251" value="2"/>
  <variable name="C(2926,62)" index="1665252" value="3"/>
  <variable name="C(2926,46)" index="1665253" value="4"/>
  <variable name="C(2987,62)" index="1665600" value="1"/>
  <variable name="C(2987,41)" index="1665601" value="2"/>
  <variable name="C(2987,42)" index="1665602" value="3"/>
  <variable name="C(2987,39)" index="1665603" value="4"/>
  <variable name="C(3029,62)" index="1665817" value="1"/>
  <variable name="C(3029,14)" index="1665818" value="2"/>
  <variable name="C(3104,52)" index="1666221" value="1"/>
  <variable name="C(3104,22)" index="1666222" value="2"/>
  <variable name="C(3202,52)" index="1666736" value="1"/>
  <variable name="C(3202,54)" index="1666737" value="2"/>
  <variable name="C(3218,7)" index="1666818" value="1"/>
  <variable name="C(3218,2)" index="1666819" value="2"/>
  <variable name="C(3254,49)" index="1667011" value="2"/>
  <variable name="C(3254,51)" index="1667012" value="3"/>
  <variable name="C(3254,38)" index="1667013" value="4"/>
  <variable name="C(3345,51)" index="1667517" value="1"/>
  <variable name="C(3345,12)" index="1667518" value="2"/>
  <variable name="C(3345,1)" index="1667519" value="3"/>
  <variable name="C(3345,63)" index="1667520" value="4"/>
  <variable name="C(3435,17)" index="1667931" value="1"/>
  <variable name="C(3435,18)" index="1667932" value="2"/>
  <variable name="C(3457,40)" index="1668021" value="1"/>
  <variable name="C(3556,7)" index="1668489" value="1"/>
  <variable name="C(3556,6)" index="1668490" value="2"/>
  <variable name="C(3556,5)" index="1668491" value="3"/>
  <variable name="C(3603,52)" index="1668740" value="1"/>
  <variable name="C(3665,52)" index="1669068" value="1"/>
  <variable name="C(3665,47)" index="1669069" value="2"/>
  <variable name="C(3705,12)" index="1669260" value="1"/>
  <variable name="C(3705,52)" index="1669261" value="2"/>
  <variable name="C(3705,20)" index="1669262" value="3"/>
  <variable name="C(3842,58)" index="1669973" value="2"/>
  <variable name="C(3842,53)" index="1669974" value="3"/>
  <variable name="C(3842,23)" index="1669975" value="4"/>
  <variable name="C(4013,61)" index="1670830" value="1"/>
  <variable name="C(4142,59)" index="1671395" value="1"/>
  <variable name="C(4142,7)" index="1671396" value="2"/>
  <variable name="C(4142,52)" index="1671397" value="3"/>
  <variable name="C(4142,55)" index="1671398" value="4"/>
  <variable name="C(4145,58)" index="1671413" value="1"/>
  <variable name="C(4181,4)" index="1671552" value="1"/>
  <variable name="C(4181,9)" index="1671553" value="2"/>
  <variable name="C(4181,27)" index="1671554" value="3"/>
  <variable name="C(4231,3)" index="1671766" value="1"/>
  <variable name="C(4231,4)" index="1671767" value="2"/>
  <variable name="C(4231,30)" index="1671768" value="3"/>
  <variable name="C(4231,10)" index="1671769" value="4"/>
  <variable name="C(4288,61)" index="1672060" value="1"/>
  <variable name="C(4288,63)" index="1672061" value="2"/>
  <variable name="C(4288,68)" index="1672062" value="3"/>
  <variable name="C(4339,4)" index="1672339" value="1"/>
  <variable name="C(4339,1)" index="1672340" value="2"/>
  <variable name="C(4339,12)" index="1672341" value="3"/>
  <variable name="C(4339,51)" index="1672342" value="4"/>
  <variable name="C(4419,57)" index="1672822" value="1"/>
  <variable name="C(4419,61)" index="1672823" value="2"/>
  <variable name="C(4419,64)" index="1672824" value="3"/>
  <variable name="C(4482,67)" index="1673158" value="2"/>
  <variable name="C(4482,61)" index="1673159" value="3"/>
  <variable name="C(4482,60)" index="1673160" value="4"/>
 </variables>
</CPLEXSolution>
